25 5 
6 45 45 45 6 6 41 45 37 6 6 37 41 37 6 6 37 6 6 6 6 6 6 6 6 
0 0 0.0
0 1 42.0
0 2 85.0
0 3 128.0
0 4 170.0
0 5 51.0
0 6 93.0
0 7 136.0
0 8 179.0
0 9 221.0
0 10 103.0
0 11 145.0
0 12 188.0
0 13 231.0
0 14 273.0
0 15 155.0
0 16 197.0
0 17 240.0
0 18 283.0
0 19 325.0
0 20 206.0
0 21 248.0
0 22 291.0
0 23 334.0
0 24 376.0
1 0 42.0
1 1 0.0
1 2 43.0
1 3 86.0
1 4 128.0
1 5 93.0
1 6 51.0
1 7 94.0
1 8 137.0
1 9 179.0
1 10 145.0
1 11 103.0
1 12 146.0
1 13 189.0
1 14 231.0
1 15 197.0
1 16 155.0
1 17 198.0
1 18 241.0
1 19 283.0
1 20 248.0
1 21 206.0
1 22 249.0
1 23 292.0
1 24 334.0
2 0 85.0
2 1 43.0
2 2 0.0
2 3 43.0
2 4 85.0
2 5 136.0
2 6 94.0
2 7 51.0
2 8 94.0
2 9 136.0
2 10 188.0
2 11 146.0
2 12 103.0
2 13 146.0
2 14 188.0
2 15 240.0
2 16 198.0
2 17 155.0
2 18 198.0
2 19 240.0
2 20 291.0
2 21 249.0
2 22 206.0
2 23 249.0
2 24 291.0
3 0 128.0
3 1 86.0
3 2 43.0
3 3 0.0
3 4 42.0
3 5 179.0
3 6 137.0
3 7 94.0
3 8 51.0
3 9 93.0
3 10 231.0
3 11 189.0
3 12 146.0
3 13 103.0
3 14 145.0
3 15 283.0
3 16 241.0
3 17 198.0
3 18 155.0
3 19 197.0
3 20 334.0
3 21 292.0
3 22 249.0
3 23 206.0
3 24 248.0
4 0 170.0
4 1 128.0
4 2 85.0
4 3 42.0
4 4 0.0
4 5 221.0
4 6 179.0
4 7 136.0
4 8 93.0
4 9 51.0
4 10 273.0
4 11 231.0
4 12 188.0
4 13 145.0
4 14 103.0
4 15 325.0
4 16 283.0
4 17 240.0
4 18 197.0
4 19 155.0
4 20 376.0
4 21 334.0
4 22 291.0
4 23 248.0
4 24 206.0
5 0 51.0
5 1 93.0
5 2 136.0
5 3 179.0
5 4 221.0
5 5 0.0
5 6 42.0
5 7 85.0
5 8 128.0
5 9 170.0
5 10 52.0
5 11 94.0
5 12 137.0
5 13 180.0
5 14 222.0
5 15 104.0
5 16 146.0
5 17 189.0
5 18 232.0
5 19 274.0
5 20 155.0
5 21 197.0
5 22 240.0
5 23 283.0
5 24 325.0
6 0 93.0
6 1 51.0
6 2 94.0
6 3 137.0
6 4 179.0
6 5 42.0
6 6 0.0
6 7 43.0
6 8 86.0
6 9 128.0
6 10 94.0
6 11 52.0
6 12 95.0
6 13 138.0
6 14 180.0
6 15 146.0
6 16 104.0
6 17 147.0
6 18 190.0
6 19 232.0
6 20 197.0
6 21 155.0
6 22 198.0
6 23 241.0
6 24 283.0
7 0 136.0
7 1 94.0
7 2 51.0
7 3 94.0
7 4 136.0
7 5 85.0
7 6 43.0
7 7 0.0
7 8 43.0
7 9 85.0
7 10 137.0
7 11 95.0
7 12 52.0
7 13 95.0
7 14 137.0
7 15 189.0
7 16 147.0
7 17 104.0
7 18 147.0
7 19 189.0
7 20 240.0
7 21 198.0
7 22 155.0
7 23 198.0
7 24 240.0
8 0 179.0
8 1 137.0
8 2 94.0
8 3 51.0
8 4 93.0
8 5 128.0
8 6 86.0
8 7 43.0
8 8 0.0
8 9 42.0
8 10 180.0
8 11 138.0
8 12 95.0
8 13 52.0
8 14 94.0
8 15 232.0
8 16 190.0
8 17 147.0
8 18 104.0
8 19 146.0
8 20 283.0
8 21 241.0
8 22 198.0
8 23 155.0
8 24 197.0
9 0 221.0
9 1 179.0
9 2 136.0
9 3 93.0
9 4 51.0
9 5 170.0
9 6 128.0
9 7 85.0
9 8 42.0
9 9 0.0
9 10 222.0
9 11 180.0
9 12 137.0
9 13 94.0
9 14 52.0
9 15 274.0
9 16 232.0
9 17 189.0
9 18 146.0
9 19 104.0
9 20 325.0
9 21 283.0
9 22 240.0
9 23 197.0
9 24 155.0
10 0 103.0
10 1 145.0
10 2 188.0
10 3 231.0
10 4 273.0
10 5 52.0
10 6 94.0
10 7 137.0
10 8 180.0
10 9 222.0
10 10 0.0
10 11 42.0
10 12 85.0
10 13 128.0
10 14 170.0
10 15 52.0
10 16 94.0
10 17 137.0
10 18 180.0
10 19 222.0
10 20 103.0
10 21 145.0
10 22 188.0
10 23 231.0
10 24 273.0
11 0 145.0
11 1 103.0
11 2 146.0
11 3 189.0
11 4 231.0
11 5 94.0
11 6 52.0
11 7 95.0
11 8 138.0
11 9 180.0
11 10 42.0
11 11 0.0
11 12 43.0
11 13 86.0
11 14 128.0
11 15 94.0
11 16 52.0
11 17 95.0
11 18 138.0
11 19 180.0
11 20 145.0
11 21 103.0
11 22 146.0
11 23 189.0
11 24 231.0
12 0 188.0
12 1 146.0
12 2 103.0
12 3 146.0
12 4 188.0
12 5 137.0
12 6 95.0
12 7 52.0
12 8 95.0
12 9 137.0
12 10 85.0
12 11 43.0
12 12 0.0
12 13 43.0
12 14 85.0
12 15 137.0
12 16 95.0
12 17 52.0
12 18 95.0
12 19 137.0
12 20 188.0
12 21 146.0
12 22 103.0
12 23 146.0
12 24 188.0
13 0 231.0
13 1 189.0
13 2 146.0
13 3 103.0
13 4 145.0
13 5 180.0
13 6 138.0
13 7 95.0
13 8 52.0
13 9 94.0
13 10 128.0
13 11 86.0
13 12 43.0
13 13 0.0
13 14 42.0
13 15 180.0
13 16 138.0
13 17 95.0
13 18 52.0
13 19 94.0
13 20 231.0
13 21 189.0
13 22 146.0
13 23 103.0
13 24 145.0
14 0 273.0
14 1 231.0
14 2 188.0
14 3 145.0
14 4 103.0
14 5 222.0
14 6 180.0
14 7 137.0
14 8 94.0
14 9 52.0
14 10 170.0
14 11 128.0
14 12 85.0
14 13 42.0
14 14 0.0
14 15 222.0
14 16 180.0
14 17 137.0
14 18 94.0
14 19 52.0
14 20 273.0
14 21 231.0
14 22 188.0
14 23 145.0
14 24 103.0
15 0 155.0
15 1 197.0
15 2 240.0
15 3 283.0
15 4 325.0
15 5 104.0
15 6 146.0
15 7 189.0
15 8 232.0
15 9 274.0
15 10 52.0
15 11 94.0
15 12 137.0
15 13 180.0
15 14 222.0
15 15 0.0
15 16 42.0
15 17 85.0
15 18 128.0
15 19 170.0
15 20 51.0
15 21 93.0
15 22 136.0
15 23 179.0
15 24 221.0
16 0 197.0
16 1 155.0
16 2 198.0
16 3 241.0
16 4 283.0
16 5 146.0
16 6 104.0
16 7 147.0
16 8 190.0
16 9 232.0
16 10 94.0
16 11 52.0
16 12 95.0
16 13 138.0
16 14 180.0
16 15 42.0
16 16 0.0
16 17 43.0
16 18 86.0
16 19 128.0
16 20 93.0
16 21 51.0
16 22 94.0
16 23 137.0
16 24 179.0
17 0 240.0
17 1 198.0
17 2 155.0
17 3 198.0
17 4 240.0
17 5 189.0
17 6 147.0
17 7 104.0
17 8 147.0
17 9 189.0
17 10 137.0
17 11 95.0
17 12 52.0
17 13 95.0
17 14 137.0
17 15 85.0
17 16 43.0
17 17 0.0
17 18 43.0
17 19 85.0
17 20 136.0
17 21 94.0
17 22 51.0
17 23 94.0
17 24 136.0
18 0 283.0
18 1 241.0
18 2 198.0
18 3 155.0
18 4 197.0
18 5 232.0
18 6 190.0
18 7 147.0
18 8 104.0
18 9 146.0
18 10 180.0
18 11 138.0
18 12 95.0
18 13 52.0
18 14 94.0
18 15 128.0
18 16 86.0
18 17 43.0
18 18 0.0
18 19 42.0
18 20 179.0
18 21 137.0
18 22 94.0
18 23 51.0
18 24 93.0
19 0 325.0
19 1 283.0
19 2 240.0
19 3 197.0
19 4 155.0
19 5 274.0
19 6 232.0
19 7 189.0
19 8 146.0
19 9 104.0
19 10 222.0
19 11 180.0
19 12 137.0
19 13 94.0
19 14 52.0
19 15 170.0
19 16 128.0
19 17 85.0
19 18 42.0
19 19 0.0
19 20 221.0
19 21 179.0
19 22 136.0
19 23 93.0
19 24 51.0
20 0 206.0
20 1 248.0
20 2 291.0
20 3 334.0
20 4 376.0
20 5 155.0
20 6 197.0
20 7 240.0
20 8 283.0
20 9 325.0
20 10 103.0
20 11 145.0
20 12 188.0
20 13 231.0
20 14 273.0
20 15 51.0
20 16 93.0
20 17 136.0
20 18 179.0
20 19 221.0
20 20 0.0
20 21 42.0
20 22 85.0
20 23 128.0
20 24 170.0
21 0 248.0
21 1 206.0
21 2 249.0
21 3 292.0
21 4 334.0
21 5 197.0
21 6 155.0
21 7 198.0
21 8 241.0
21 9 283.0
21 10 145.0
21 11 103.0
21 12 146.0
21 13 189.0
21 14 231.0
21 15 93.0
21 16 51.0
21 17 94.0
21 18 137.0
21 19 179.0
21 20 42.0
21 21 0.0
21 22 43.0
21 23 86.0
21 24 128.0
22 0 291.0
22 1 249.0
22 2 206.0
22 3 249.0
22 4 291.0
22 5 240.0
22 6 198.0
22 7 155.0
22 8 198.0
22 9 240.0
22 10 188.0
22 11 146.0
22 12 103.0
22 13 146.0
22 14 188.0
22 15 136.0
22 16 94.0
22 17 51.0
22 18 94.0
22 19 136.0
22 20 85.0
22 21 43.0
22 22 0.0
22 23 43.0
22 24 85.0
23 0 334.0
23 1 292.0
23 2 249.0
23 3 206.0
23 4 248.0
23 5 283.0
23 6 241.0
23 7 198.0
23 8 155.0
23 9 197.0
23 10 231.0
23 11 189.0
23 12 146.0
23 13 103.0
23 14 145.0
23 15 179.0
23 16 137.0
23 17 94.0
23 18 51.0
23 19 93.0
23 20 128.0
23 21 86.0
23 22 43.0
23 23 0.0
23 24 42.0
24 0 376.0
24 1 334.0
24 2 291.0
24 3 248.0
24 4 206.0
24 5 325.0
24 6 283.0
24 7 240.0
24 8 197.0
24 9 155.0
24 10 273.0
24 11 231.0
24 12 188.0
24 13 145.0
24 14 103.0
24 15 221.0
24 16 179.0
24 17 136.0
24 18 93.0
24 19 51.0
24 20 170.0
24 21 128.0
24 22 85.0
24 23 42.0
24 24 0.0
